c instance by G2
c solution = 1011011010111010110001000
c Known solution cost is 1178 
p cnf 25 30
w 28 76 24 14 34 55 67 85 97 33 35 50 1 66 17 85 99 82 23 46 24 8 12 35 82
18 8 -11 0
-19 16 -18 0
3 -13 5 0
-8 -1 18 0
20 -15 13 0
7 5 24 0
9 20 5 0
10 -2 24 0
-17 -16 14 0
-8 2 14 0
-22 -23 20 0
23 24 11 0
-6 -9 -24 0
-14 -11 -6 0
-22 6 5 0
23 24 17 0
22 5 -12 0
4 12 6 0
15 -11 16 0
23 10 4 0
-5 -4 -6 0
8 -21 -15 0
-11 12 13 0
-11 -22 -20 0
-25 5 24 0
-9 1 5 0
24 17 -2 0
20 -10 -1 0
12 -13 10 0
-23 7 -9 0
